(set-option :auto-config false)
(set-option :produce-unsat-cores false)
(set-option :smt.mbqi.max_iterations 10000000)
(set-option :smt.relevancy 0)
(define-fun e2 ((c0 (_ BitVec 64)) (c1 (_ BitVec 64))) (_ BitVec 64) (_ bv1024 64))
(define-fun e3 ((c0 (_ BitVec 64)) (c1 (_ BitVec 64))) Bool (bvult c0 (e2 c0 c1)))
(define-fun e4 ((c0 (_ BitVec 64)) (c1 (_ BitVec 64))) Bool (bvult c1 (e2 c0 c1)))
(define-fun e5 ((c0 (_ BitVec 64)) (c1 (_ BitVec 64))) Bool (and (e3 c0 c1) (e4 c0 c1)))
(define-fun e6 ((c0 (_ BitVec 64)) (c1 (_ BitVec 64))) Bool (not (e5 c0 c1)))
(declare-fun c7 () Bool)
(define-fun e8 ((c0 (_ BitVec 64)) (c1 (_ BitVec 64))) Bool (not c7))
(declare-fun c9 () (_ BitVec 64))
(declare-fun c10 () (_ BitVec 64))
(define-fun e11 ((c0 (_ BitVec 64)) (c1 (_ BitVec 64))) Bool (= c9 c10))
(define-fun e12 ((c0 (_ BitVec 64)) (c1 (_ BitVec 64))) Bool (not (e11 c0 c1)))
(define-fun e13 ((c0 (_ BitVec 64)) (c1 (_ BitVec 64))) Bool (bvult c9 (e2 c0 c1)))
(define-fun e14 ((c0 (_ BitVec 64)) (c1 (_ BitVec 64))) Bool (bvult c10 (e2 c0 c1)))
(define-fun e15 ((c0 (_ BitVec 64)) (c1 (_ BitVec 64))) Bool (and (e13 c0 c1) (e14 c0 c1)))
(define-fun e16 ((c0 (_ BitVec 64)) (c1 (_ BitVec 64))) (_ BitVec 64) (_ bv0 64))
(declare-fun c17 ((_ BitVec 64)) (_ BitVec 64))
(define-fun e18 ((c0 (_ BitVec 64)) (c1 (_ BitVec 64))) (_ BitVec 64) (c17 c9))
(define-fun e19 ((c0 (_ BitVec 64)) (c1 (_ BitVec 64))) Bool (= (e16 c0 c1) (e18 c0 c1)))
(define-fun e20 ((c0 (_ BitVec 64)) (c1 (_ BitVec 64))) Bool (and (e13 c0 c1) (e19 c0 c1)))
(define-fun e21 ((c0 (_ BitVec 64)) (c1 (_ BitVec 64))) (_ BitVec 64) (c17 c10))
(define-fun e22 ((c0 (_ BitVec 64)) (c1 (_ BitVec 64))) Bool (= (e16 c0 c1) (e21 c0 c1)))
(define-fun e23 ((c0 (_ BitVec 64)) (c1 (_ BitVec 64))) Bool (and (e14 c0 c1) (e22 c0 c1)))
(define-fun e24 ((c0 (_ BitVec 64)) (c1 (_ BitVec 64))) Bool (and (e8 c0 c1) (e12 c0 c1) (e15 c0 c1) (e20 c0 c1) (e23 c0 c1)))
(define-fun e25 ((c0 (_ BitVec 64)) (c1 (_ BitVec 64))) Bool (= c9 c0))
(define-fun e26 ((c0 (_ BitVec 64)) (c1 (_ BitVec 64))) Bool (= c10 c1))
(define-fun e27 ((c0 (_ BitVec 64)) (c1 (_ BitVec 64))) Bool (and (e25 c0 c1) (e26 c0 c1)))
(define-fun e28 ((c0 (_ BitVec 64)) (c1 (_ BitVec 64))) (_ BitVec 64) (_ bv1 64))
(declare-fun c29 ((_ BitVec 64)) (_ BitVec 64))
(define-fun e30 ((c0 (_ BitVec 64)) (c1 (_ BitVec 64))) (_ BitVec 64) (c29 c9))
(define-fun e31 ((c0 (_ BitVec 64)) (c1 (_ BitVec 64))) (_ BitVec 64) (bvadd (e28 c0 c1) (e30 c0 c1)))
(define-fun e32 ((c0 (_ BitVec 64)) (c1 (_ BitVec 64))) Bool (= (e30 c0 c1) (e31 c0 c1)))
(declare-fun c33 ((_ BitVec 64) (_ BitVec 64)) (_ BitVec 64))
(define-fun e34 ((c0 (_ BitVec 64)) (c1 (_ BitVec 64))) (_ BitVec 64) (c33 c9 c9))
(define-fun e35 ((c0 (_ BitVec 64)) (c1 (_ BitVec 64))) Bool (= (e34 c0 c1) (e31 c0 c1)))
(declare-fun c36 ((_ BitVec 64) (_ BitVec 64)) (_ BitVec 64))
(define-fun e37 ((c0 (_ BitVec 64)) (c1 (_ BitVec 64))) (_ BitVec 64) (c36 c9 (e30 c0 c1)))
(define-fun e38 ((c0 (_ BitVec 64)) (c1 (_ BitVec 64))) (_ BitVec 64) (c36 c9 (e31 c0 c1)))
(define-fun e39 ((c0 (_ BitVec 64)) (c1 (_ BitVec 64))) (_ BitVec 64) (ite (e35 c0 c1) (e37 c0 c1) (e38 c0 c1)))
(define-fun e40 ((c0 (_ BitVec 64)) (c1 (_ BitVec 64))) (_ BitVec 64) (ite (e32 c0 c1) c9 (e39 c0 c1)))
(define-fun e41 ((c0 (_ BitVec 64)) (c1 (_ BitVec 64))) Bool (= c1 (e40 c0 c1)))
(define-fun e42 ((c0 (_ BitVec 64)) (c1 (_ BitVec 64))) Bool (and (e25 c0 c1) (e41 c0 c1)))
(define-fun e43 ((c0 (_ BitVec 64)) (c1 (_ BitVec 64))) Bool (= c10 (e37 c0 c1)))
(define-fun e44 ((c0 (_ BitVec 64)) (c1 (_ BitVec 64))) (_ BitVec 64) (c33 c9 c10))
(define-fun e45 ((c0 (_ BitVec 64)) (c1 (_ BitVec 64))) (_ BitVec 64) (ite (e43 c0 c1) (e34 c0 c1) (e44 c0 c1)))
(define-fun e46 ((c0 (_ BitVec 64)) (c1 (_ BitVec 64))) (_ BitVec 64) (ite (e11 c0 c1) (e30 c0 c1) (e45 c0 c1)))
(define-fun e47 ((c0 (_ BitVec 64)) (c1 (_ BitVec 64))) Bool (= c9 c1))
(define-fun e48 ((c0 (_ BitVec 64)) (c1 (_ BitVec 64))) Bool (and (e25 c0 c1) (e47 c0 c1)))
(define-fun e49 ((c0 (_ BitVec 64)) (c1 (_ BitVec 64))) Bool (= c1 (e37 c0 c1)))
(define-fun e50 ((c0 (_ BitVec 64)) (c1 (_ BitVec 64))) Bool (and (e25 c0 c1) (e49 c0 c1)))
(define-fun e51 ((c0 (_ BitVec 64)) (c1 (_ BitVec 64))) (_ BitVec 64) (c33 c0 c1))
(define-fun e52 ((c0 (_ BitVec 64)) (c1 (_ BitVec 64))) (_ BitVec 64) (ite (e50 c0 c1) (e34 c0 c1) (e51 c0 c1)))
(define-fun e53 ((c0 (_ BitVec 64)) (c1 (_ BitVec 64))) (_ BitVec 64) (ite (e48 c0 c1) (e30 c0 c1) (e52 c0 c1)))
(define-fun e54 ((c0 (_ BitVec 64)) (c1 (_ BitVec 64))) (_ BitVec 64) (ite (e42 c0 c1) (e46 c0 c1) (e53 c0 c1)))
(define-fun e55 ((c0 (_ BitVec 64)) (c1 (_ BitVec 64))) (_ BitVec 64) (ite (e27 c0 c1) (e31 c0 c1) (e54 c0 c1)))
(define-fun e56 ((c0 (_ BitVec 64)) (c1 (_ BitVec 64))) Bool (not (e15 c0 c1)))
(define-fun e57 ((c0 (_ BitVec 64)) (c1 (_ BitVec 64))) Bool (and (e20 c0 c1) (e23 c0 c1)))
(define-fun e58 ((c0 (_ BitVec 64)) (c1 (_ BitVec 64))) Bool (not (e57 c0 c1)))
(define-fun e59 ((c0 (_ BitVec 64)) (c1 (_ BitVec 64))) Bool (and (e15 c0 c1) (e58 c0 c1)))
(define-fun e60 ((c0 (_ BitVec 64)) (c1 (_ BitVec 64))) Bool (or (e56 c0 c1) (e59 c0 c1)))
(define-fun e61 ((c0 (_ BitVec 64)) (c1 (_ BitVec 64))) Bool (and (e12 c0 c1) (e60 c0 c1)))
(define-fun e62 ((c0 (_ BitVec 64)) (c1 (_ BitVec 64))) Bool (or (e11 c0 c1) (e61 c0 c1)))
(define-fun e63 ((c0 (_ BitVec 64)) (c1 (_ BitVec 64))) Bool (and (e8 c0 c1) (e62 c0 c1)))
(define-fun e64 ((c0 (_ BitVec 64)) (c1 (_ BitVec 64))) Bool (or c7 (e63 c0 c1)))
(define-fun e65 ((c0 (_ BitVec 64)) (c1 (_ BitVec 64))) (_ BitVec 64) (bvor (ite (e24 c0 c1) (e55 c0 c1) (_ bv0 64)) (ite (e64 c0 c1) (e51 c0 c1) (_ bv0 64))))
(define-fun e66 ((c0 (_ BitVec 64)) (c1 (_ BitVec 64))) Bool (bvult (e65 c0 c1) (e2 c0 c1)))
(define-fun e67 ((c0 (_ BitVec 64)) (c1 (_ BitVec 64))) Bool (or (e6 c0 c1) (e66 c0 c1)))
(define-fun e68 () Bool (forall ((c0 (_ BitVec 64)) (c1 (_ BitVec 64))) (e67 c0 c1)))
(define-fun e70 ((c0 (_ BitVec 64)) (c1 (_ BitVec 64)) (c69 (_ BitVec 64))) (_ BitVec 64) (_ bv1024 64))
(define-fun e71 ((c0 (_ BitVec 64)) (c1 (_ BitVec 64)) (c69 (_ BitVec 64))) Bool (bvult c0 (e70 c0 c1 c69)))
(define-fun e72 ((c0 (_ BitVec 64)) (c1 (_ BitVec 64)) (c69 (_ BitVec 64))) Bool (bvult c1 (e70 c0 c1 c69)))
(define-fun e73 ((c0 (_ BitVec 64)) (c1 (_ BitVec 64)) (c69 (_ BitVec 64))) Bool (bvult c69 (e70 c0 c1 c69)))
(define-fun e74 ((c0 (_ BitVec 64)) (c1 (_ BitVec 64)) (c69 (_ BitVec 64))) Bool (and (e71 c0 c1 c69) (e72 c0 c1 c69) (e73 c0 c1 c69)))
(define-fun e75 ((c0 (_ BitVec 64)) (c1 (_ BitVec 64)) (c69 (_ BitVec 64))) Bool (not (e74 c0 c1 c69)))
(define-fun e76 ((c0 (_ BitVec 64)) (c1 (_ BitVec 64)) (c69 (_ BitVec 64))) Bool (not c7))
(define-fun e77 ((c0 (_ BitVec 64)) (c1 (_ BitVec 64)) (c69 (_ BitVec 64))) Bool (= c9 c10))
(define-fun e78 ((c0 (_ BitVec 64)) (c1 (_ BitVec 64)) (c69 (_ BitVec 64))) Bool (not (e77 c0 c1 c69)))
(define-fun e79 ((c0 (_ BitVec 64)) (c1 (_ BitVec 64)) (c69 (_ BitVec 64))) Bool (bvult c9 (e70 c0 c1 c69)))
(define-fun e80 ((c0 (_ BitVec 64)) (c1 (_ BitVec 64)) (c69 (_ BitVec 64))) Bool (bvult c10 (e70 c0 c1 c69)))
(define-fun e81 ((c0 (_ BitVec 64)) (c1 (_ BitVec 64)) (c69 (_ BitVec 64))) Bool (and (e79 c0 c1 c69) (e80 c0 c1 c69)))
(define-fun e82 ((c0 (_ BitVec 64)) (c1 (_ BitVec 64)) (c69 (_ BitVec 64))) (_ BitVec 64) (_ bv0 64))
(define-fun e83 ((c0 (_ BitVec 64)) (c1 (_ BitVec 64)) (c69 (_ BitVec 64))) (_ BitVec 64) (c17 c9))
(define-fun e84 ((c0 (_ BitVec 64)) (c1 (_ BitVec 64)) (c69 (_ BitVec 64))) Bool (= (e82 c0 c1 c69) (e83 c0 c1 c69)))
(define-fun e85 ((c0 (_ BitVec 64)) (c1 (_ BitVec 64)) (c69 (_ BitVec 64))) Bool (and (e79 c0 c1 c69) (e84 c0 c1 c69)))
(define-fun e86 ((c0 (_ BitVec 64)) (c1 (_ BitVec 64)) (c69 (_ BitVec 64))) (_ BitVec 64) (c17 c10))
(define-fun e87 ((c0 (_ BitVec 64)) (c1 (_ BitVec 64)) (c69 (_ BitVec 64))) Bool (= (e82 c0 c1 c69) (e86 c0 c1 c69)))
(define-fun e88 ((c0 (_ BitVec 64)) (c1 (_ BitVec 64)) (c69 (_ BitVec 64))) Bool (and (e80 c0 c1 c69) (e87 c0 c1 c69)))
(define-fun e89 ((c0 (_ BitVec 64)) (c1 (_ BitVec 64)) (c69 (_ BitVec 64))) Bool (and (e76 c0 c1 c69) (e78 c0 c1 c69) (e81 c0 c1 c69) (e85 c0 c1 c69) (e88 c0 c1 c69)))
(define-fun e90 ((c0 (_ BitVec 64)) (c1 (_ BitVec 64)) (c69 (_ BitVec 64))) Bool (= c9 c0))
(define-fun e91 ((c0 (_ BitVec 64)) (c1 (_ BitVec 64)) (c69 (_ BitVec 64))) (_ BitVec 64) (_ bv1 64))
(define-fun e92 ((c0 (_ BitVec 64)) (c1 (_ BitVec 64)) (c69 (_ BitVec 64))) (_ BitVec 64) (c29 c9))
(define-fun e93 ((c0 (_ BitVec 64)) (c1 (_ BitVec 64)) (c69 (_ BitVec 64))) (_ BitVec 64) (bvadd (e91 c0 c1 c69) (e92 c0 c1 c69)))
(define-fun e94 ((c0 (_ BitVec 64)) (c1 (_ BitVec 64)) (c69 (_ BitVec 64))) Bool (= c69 (e93 c0 c1 c69)))
(define-fun e95 ((c0 (_ BitVec 64)) (c1 (_ BitVec 64)) (c69 (_ BitVec 64))) Bool (and (e90 c0 c1 c69) (e94 c0 c1 c69)))
(define-fun e96 ((c0 (_ BitVec 64)) (c1 (_ BitVec 64)) (c69 (_ BitVec 64))) (_ BitVec 64) (c36 c9 (e92 c0 c1 c69)))
(define-fun e97 ((c0 (_ BitVec 64)) (c1 (_ BitVec 64)) (c69 (_ BitVec 64))) Bool (= c10 (e96 c0 c1 c69)))
(define-fun e98 ((c0 (_ BitVec 64)) (c1 (_ BitVec 64)) (c69 (_ BitVec 64))) (_ BitVec 64) (c33 c9 c9))
(define-fun e99 ((c0 (_ BitVec 64)) (c1 (_ BitVec 64)) (c69 (_ BitVec 64))) (_ BitVec 64) (c33 c9 c10))
(define-fun e100 ((c0 (_ BitVec 64)) (c1 (_ BitVec 64)) (c69 (_ BitVec 64))) (_ BitVec 64) (ite (e97 c0 c1 c69) (e98 c0 c1 c69) (e99 c0 c1 c69)))
(define-fun e101 ((c0 (_ BitVec 64)) (c1 (_ BitVec 64)) (c69 (_ BitVec 64))) (_ BitVec 64) (ite (e77 c0 c1 c69) (e92 c0 c1 c69) (e100 c0 c1 c69)))
(define-fun e102 ((c0 (_ BitVec 64)) (c1 (_ BitVec 64)) (c69 (_ BitVec 64))) Bool (= c69 (e101 c0 c1 c69)))
(define-fun e103 ((c0 (_ BitVec 64)) (c1 (_ BitVec 64)) (c69 (_ BitVec 64))) Bool (and (e90 c0 c1 c69) (e102 c0 c1 c69)))
(define-fun e104 ((c0 (_ BitVec 64)) (c1 (_ BitVec 64)) (c69 (_ BitVec 64))) Bool (= (e92 c0 c1 c69) (e93 c0 c1 c69)))
(define-fun e105 ((c0 (_ BitVec 64)) (c1 (_ BitVec 64)) (c69 (_ BitVec 64))) Bool (= (e98 c0 c1 c69) (e93 c0 c1 c69)))
(define-fun e106 ((c0 (_ BitVec 64)) (c1 (_ BitVec 64)) (c69 (_ BitVec 64))) (_ BitVec 64) (c36 c9 (e93 c0 c1 c69)))
(define-fun e107 ((c0 (_ BitVec 64)) (c1 (_ BitVec 64)) (c69 (_ BitVec 64))) (_ BitVec 64) (ite (e105 c0 c1 c69) (e96 c0 c1 c69) (e106 c0 c1 c69)))
(define-fun e108 ((c0 (_ BitVec 64)) (c1 (_ BitVec 64)) (c69 (_ BitVec 64))) (_ BitVec 64) (ite (e104 c0 c1 c69) c9 (e107 c0 c1 c69)))
(define-fun e109 ((c0 (_ BitVec 64)) (c1 (_ BitVec 64)) (c69 (_ BitVec 64))) Bool (= c69 (e92 c0 c1 c69)))
(define-fun e110 ((c0 (_ BitVec 64)) (c1 (_ BitVec 64)) (c69 (_ BitVec 64))) Bool (and (e90 c0 c1 c69) (e109 c0 c1 c69)))
(define-fun e111 ((c0 (_ BitVec 64)) (c1 (_ BitVec 64)) (c69 (_ BitVec 64))) Bool (= c69 (e98 c0 c1 c69)))
(define-fun e112 ((c0 (_ BitVec 64)) (c1 (_ BitVec 64)) (c69 (_ BitVec 64))) Bool (and (e90 c0 c1 c69) (e111 c0 c1 c69)))
(define-fun e113 ((c0 (_ BitVec 64)) (c1 (_ BitVec 64)) (c69 (_ BitVec 64))) (_ BitVec 64) (c36 c0 c69))
(define-fun e114 ((c0 (_ BitVec 64)) (c1 (_ BitVec 64)) (c69 (_ BitVec 64))) (_ BitVec 64) (ite (e112 c0 c1 c69) (e96 c0 c1 c69) (e113 c0 c1 c69)))
(define-fun e115 ((c0 (_ BitVec 64)) (c1 (_ BitVec 64)) (c69 (_ BitVec 64))) (_ BitVec 64) (ite (e110 c0 c1 c69) c9 (e114 c0 c1 c69)))
(define-fun e116 ((c0 (_ BitVec 64)) (c1 (_ BitVec 64)) (c69 (_ BitVec 64))) (_ BitVec 64) (ite (e103 c0 c1 c69) (e108 c0 c1 c69) (e115 c0 c1 c69)))
(define-fun e117 ((c0 (_ BitVec 64)) (c1 (_ BitVec 64)) (c69 (_ BitVec 64))) (_ BitVec 64) (ite (e95 c0 c1 c69) c10 (e116 c0 c1 c69)))
(define-fun e118 ((c0 (_ BitVec 64)) (c1 (_ BitVec 64)) (c69 (_ BitVec 64))) Bool (not (e81 c0 c1 c69)))
(define-fun e119 ((c0 (_ BitVec 64)) (c1 (_ BitVec 64)) (c69 (_ BitVec 64))) Bool (and (e85 c0 c1 c69) (e88 c0 c1 c69)))
(define-fun e120 ((c0 (_ BitVec 64)) (c1 (_ BitVec 64)) (c69 (_ BitVec 64))) Bool (not (e119 c0 c1 c69)))
(define-fun e121 ((c0 (_ BitVec 64)) (c1 (_ BitVec 64)) (c69 (_ BitVec 64))) Bool (and (e81 c0 c1 c69) (e120 c0 c1 c69)))
(define-fun e122 ((c0 (_ BitVec 64)) (c1 (_ BitVec 64)) (c69 (_ BitVec 64))) Bool (or (e118 c0 c1 c69) (e121 c0 c1 c69)))
(define-fun e123 ((c0 (_ BitVec 64)) (c1 (_ BitVec 64)) (c69 (_ BitVec 64))) Bool (and (e78 c0 c1 c69) (e122 c0 c1 c69)))
(define-fun e124 ((c0 (_ BitVec 64)) (c1 (_ BitVec 64)) (c69 (_ BitVec 64))) Bool (or (e77 c0 c1 c69) (e123 c0 c1 c69)))
(define-fun e125 ((c0 (_ BitVec 64)) (c1 (_ BitVec 64)) (c69 (_ BitVec 64))) Bool (and (e76 c0 c1 c69) (e124 c0 c1 c69)))
(define-fun e126 ((c0 (_ BitVec 64)) (c1 (_ BitVec 64)) (c69 (_ BitVec 64))) Bool (or c7 (e125 c0 c1 c69)))
(define-fun e127 ((c0 (_ BitVec 64)) (c1 (_ BitVec 64)) (c69 (_ BitVec 64))) (_ BitVec 64) (bvor (ite (e89 c0 c1 c69) (e117 c0 c1 c69) (_ bv0 64)) (ite (e126 c0 c1 c69) (e113 c0 c1 c69) (_ bv0 64))))
(define-fun e128 ((c0 (_ BitVec 64)) (c1 (_ BitVec 64)) (c69 (_ BitVec 64))) Bool (= c10 (e127 c0 c1 c69)))
(define-fun e129 ((c0 (_ BitVec 64)) (c1 (_ BitVec 64)) (c69 (_ BitVec 64))) Bool (and (e90 c0 c1 c69) (e128 c0 c1 c69)))
(define-fun e130 ((c0 (_ BitVec 64)) (c1 (_ BitVec 64)) (c69 (_ BitVec 64))) Bool (= (e108 c0 c1 c69) (e127 c0 c1 c69)))
(define-fun e131 ((c0 (_ BitVec 64)) (c1 (_ BitVec 64)) (c69 (_ BitVec 64))) Bool (and (e90 c0 c1 c69) (e130 c0 c1 c69)))
(define-fun e132 ((c0 (_ BitVec 64)) (c1 (_ BitVec 64)) (c69 (_ BitVec 64))) Bool (= c9 (e127 c0 c1 c69)))
(define-fun e133 ((c0 (_ BitVec 64)) (c1 (_ BitVec 64)) (c69 (_ BitVec 64))) Bool (and (e90 c0 c1 c69) (e132 c0 c1 c69)))
(define-fun e134 ((c0 (_ BitVec 64)) (c1 (_ BitVec 64)) (c69 (_ BitVec 64))) Bool (= (e96 c0 c1 c69) (e127 c0 c1 c69)))
(define-fun e135 ((c0 (_ BitVec 64)) (c1 (_ BitVec 64)) (c69 (_ BitVec 64))) Bool (and (e90 c0 c1 c69) (e134 c0 c1 c69)))
(define-fun e136 ((c0 (_ BitVec 64)) (c1 (_ BitVec 64)) (c69 (_ BitVec 64))) (_ BitVec 64) (c33 c0 (e127 c0 c1 c69)))
(define-fun e137 ((c0 (_ BitVec 64)) (c1 (_ BitVec 64)) (c69 (_ BitVec 64))) (_ BitVec 64) (ite (e135 c0 c1 c69) (e98 c0 c1 c69) (e136 c0 c1 c69)))
(define-fun e138 ((c0 (_ BitVec 64)) (c1 (_ BitVec 64)) (c69 (_ BitVec 64))) (_ BitVec 64) (ite (e133 c0 c1 c69) (e92 c0 c1 c69) (e137 c0 c1 c69)))
(define-fun e139 ((c0 (_ BitVec 64)) (c1 (_ BitVec 64)) (c69 (_ BitVec 64))) (_ BitVec 64) (ite (e131 c0 c1 c69) (e101 c0 c1 c69) (e138 c0 c1 c69)))
(define-fun e140 ((c0 (_ BitVec 64)) (c1 (_ BitVec 64)) (c69 (_ BitVec 64))) (_ BitVec 64) (ite (e129 c0 c1 c69) (e93 c0 c1 c69) (e139 c0 c1 c69)))
(define-fun e141 ((c0 (_ BitVec 64)) (c1 (_ BitVec 64)) (c69 (_ BitVec 64))) (_ BitVec 64) (bvor (ite (e89 c0 c1 c69) (e140 c0 c1 c69) (_ bv0 64)) (ite (e126 c0 c1 c69) (e136 c0 c1 c69) (_ bv0 64))))
(define-fun e142 ((c0 (_ BitVec 64)) (c1 (_ BitVec 64)) (c69 (_ BitVec 64))) Bool (= c69 (e141 c0 c1 c69)))
(define-fun e143 ((c0 (_ BitVec 64)) (c1 (_ BitVec 64)) (c69 (_ BitVec 64))) Bool (= c10 c1))
(define-fun e144 ((c0 (_ BitVec 64)) (c1 (_ BitVec 64)) (c69 (_ BitVec 64))) Bool (and (e90 c0 c1 c69) (e143 c0 c1 c69)))
(define-fun e145 ((c0 (_ BitVec 64)) (c1 (_ BitVec 64)) (c69 (_ BitVec 64))) Bool (= c1 (e108 c0 c1 c69)))
(define-fun e146 ((c0 (_ BitVec 64)) (c1 (_ BitVec 64)) (c69 (_ BitVec 64))) Bool (and (e90 c0 c1 c69) (e145 c0 c1 c69)))
(define-fun e147 ((c0 (_ BitVec 64)) (c1 (_ BitVec 64)) (c69 (_ BitVec 64))) Bool (= c9 c1))
(define-fun e148 ((c0 (_ BitVec 64)) (c1 (_ BitVec 64)) (c69 (_ BitVec 64))) Bool (and (e90 c0 c1 c69) (e147 c0 c1 c69)))
(define-fun e149 ((c0 (_ BitVec 64)) (c1 (_ BitVec 64)) (c69 (_ BitVec 64))) Bool (= c1 (e96 c0 c1 c69)))
(define-fun e150 ((c0 (_ BitVec 64)) (c1 (_ BitVec 64)) (c69 (_ BitVec 64))) Bool (and (e90 c0 c1 c69) (e149 c0 c1 c69)))
(define-fun e151 ((c0 (_ BitVec 64)) (c1 (_ BitVec 64)) (c69 (_ BitVec 64))) (_ BitVec 64) (c33 c0 c1))
(define-fun e152 ((c0 (_ BitVec 64)) (c1 (_ BitVec 64)) (c69 (_ BitVec 64))) (_ BitVec 64) (ite (e150 c0 c1 c69) (e98 c0 c1 c69) (e151 c0 c1 c69)))
(define-fun e153 ((c0 (_ BitVec 64)) (c1 (_ BitVec 64)) (c69 (_ BitVec 64))) (_ BitVec 64) (ite (e148 c0 c1 c69) (e92 c0 c1 c69) (e152 c0 c1 c69)))
(define-fun e154 ((c0 (_ BitVec 64)) (c1 (_ BitVec 64)) (c69 (_ BitVec 64))) (_ BitVec 64) (ite (e146 c0 c1 c69) (e101 c0 c1 c69) (e153 c0 c1 c69)))
(define-fun e155 ((c0 (_ BitVec 64)) (c1 (_ BitVec 64)) (c69 (_ BitVec 64))) (_ BitVec 64) (ite (e144 c0 c1 c69) (e93 c0 c1 c69) (e154 c0 c1 c69)))
(define-fun e156 ((c0 (_ BitVec 64)) (c1 (_ BitVec 64)) (c69 (_ BitVec 64))) (_ BitVec 64) (bvor (ite (e89 c0 c1 c69) (e155 c0 c1 c69) (_ bv0 64)) (ite (e126 c0 c1 c69) (e151 c0 c1 c69) (_ bv0 64))))
(define-fun e157 ((c0 (_ BitVec 64)) (c1 (_ BitVec 64)) (c69 (_ BitVec 64))) Bool (= (e93 c0 c1 c69) (e156 c0 c1 c69)))
(define-fun e158 ((c0 (_ BitVec 64)) (c1 (_ BitVec 64)) (c69 (_ BitVec 64))) Bool (and (e90 c0 c1 c69) (e157 c0 c1 c69)))
(define-fun e159 ((c0 (_ BitVec 64)) (c1 (_ BitVec 64)) (c69 (_ BitVec 64))) Bool (= (e101 c0 c1 c69) (e156 c0 c1 c69)))
(define-fun e160 ((c0 (_ BitVec 64)) (c1 (_ BitVec 64)) (c69 (_ BitVec 64))) Bool (and (e90 c0 c1 c69) (e159 c0 c1 c69)))
(define-fun e161 ((c0 (_ BitVec 64)) (c1 (_ BitVec 64)) (c69 (_ BitVec 64))) Bool (= (e92 c0 c1 c69) (e156 c0 c1 c69)))
(define-fun e162 ((c0 (_ BitVec 64)) (c1 (_ BitVec 64)) (c69 (_ BitVec 64))) Bool (and (e90 c0 c1 c69) (e161 c0 c1 c69)))
(define-fun e163 ((c0 (_ BitVec 64)) (c1 (_ BitVec 64)) (c69 (_ BitVec 64))) Bool (= (e98 c0 c1 c69) (e156 c0 c1 c69)))
(define-fun e164 ((c0 (_ BitVec 64)) (c1 (_ BitVec 64)) (c69 (_ BitVec 64))) Bool (and (e90 c0 c1 c69) (e163 c0 c1 c69)))
(define-fun e165 ((c0 (_ BitVec 64)) (c1 (_ BitVec 64)) (c69 (_ BitVec 64))) (_ BitVec 64) (c36 c0 (e156 c0 c1 c69)))
(define-fun e166 ((c0 (_ BitVec 64)) (c1 (_ BitVec 64)) (c69 (_ BitVec 64))) (_ BitVec 64) (ite (e164 c0 c1 c69) (e96 c0 c1 c69) (e165 c0 c1 c69)))
(define-fun e167 ((c0 (_ BitVec 64)) (c1 (_ BitVec 64)) (c69 (_ BitVec 64))) (_ BitVec 64) (ite (e162 c0 c1 c69) c9 (e166 c0 c1 c69)))
(define-fun e168 ((c0 (_ BitVec 64)) (c1 (_ BitVec 64)) (c69 (_ BitVec 64))) (_ BitVec 64) (ite (e160 c0 c1 c69) (e108 c0 c1 c69) (e167 c0 c1 c69)))
(define-fun e169 ((c0 (_ BitVec 64)) (c1 (_ BitVec 64)) (c69 (_ BitVec 64))) (_ BitVec 64) (ite (e158 c0 c1 c69) c10 (e168 c0 c1 c69)))
(define-fun e170 ((c0 (_ BitVec 64)) (c1 (_ BitVec 64)) (c69 (_ BitVec 64))) (_ BitVec 64) (bvor (ite (e89 c0 c1 c69) (e169 c0 c1 c69) (_ bv0 64)) (ite (e126 c0 c1 c69) (e165 c0 c1 c69) (_ bv0 64))))
(define-fun e171 ((c0 (_ BitVec 64)) (c1 (_ BitVec 64)) (c69 (_ BitVec 64))) Bool (= c1 (e170 c0 c1 c69)))
(define-fun e172 ((c0 (_ BitVec 64)) (c1 (_ BitVec 64)) (c69 (_ BitVec 64))) Bool (and (e142 c0 c1 c69) (e171 c0 c1 c69)))
(define-fun e173 ((c0 (_ BitVec 64)) (c1 (_ BitVec 64)) (c69 (_ BitVec 64))) Bool (or (e75 c0 c1 c69) (e172 c0 c1 c69)))
(define-fun e174 () Bool (forall ((c0 (_ BitVec 64)) (c1 (_ BitVec 64)) (c69 (_ BitVec 64))) (e173 c0 c1 c69)))
(define-fun e175 ((c0 (_ BitVec 64))) (_ BitVec 64) (_ bv0 64))
(define-fun e176 ((c0 (_ BitVec 64))) Bool (not c7))
(define-fun e177 ((c0 (_ BitVec 64))) Bool (= c9 c10))
(define-fun e178 ((c0 (_ BitVec 64))) Bool (not (e177 c0)))
(define-fun e179 ((c0 (_ BitVec 64))) (_ BitVec 64) (_ bv1024 64))
(define-fun e180 ((c0 (_ BitVec 64))) Bool (bvult c9 (e179 c0)))
(define-fun e181 ((c0 (_ BitVec 64))) Bool (bvult c10 (e179 c0)))
(define-fun e182 ((c0 (_ BitVec 64))) Bool (and (e180 c0) (e181 c0)))
(define-fun e183 ((c0 (_ BitVec 64))) (_ BitVec 64) (c17 c9))
(define-fun e184 ((c0 (_ BitVec 64))) Bool (= (e175 c0) (e183 c0)))
(define-fun e185 ((c0 (_ BitVec 64))) Bool (and (e180 c0) (e184 c0)))
(define-fun e186 ((c0 (_ BitVec 64))) (_ BitVec 64) (c17 c10))
(define-fun e187 ((c0 (_ BitVec 64))) Bool (= (e175 c0) (e186 c0)))
(define-fun e188 ((c0 (_ BitVec 64))) Bool (and (e181 c0) (e187 c0)))
(define-fun e189 ((c0 (_ BitVec 64))) Bool (and (e176 c0) (e178 c0) (e182 c0) (e185 c0) (e188 c0)))
(define-fun e190 ((c0 (_ BitVec 64))) Bool (= c9 c0))
(define-fun e191 ((c0 (_ BitVec 64))) Bool (= c10 c0))
(define-fun e192 ((c0 (_ BitVec 64))) Bool (and (e190 c0) (e191 c0)))
(define-fun e193 ((c0 (_ BitVec 64))) (_ BitVec 64) (_ bv1 64))
(define-fun e194 ((c0 (_ BitVec 64))) (_ BitVec 64) (c29 c9))
(define-fun e195 ((c0 (_ BitVec 64))) (_ BitVec 64) (bvadd (e193 c0) (e194 c0)))
(define-fun e196 ((c0 (_ BitVec 64))) Bool (= (e194 c0) (e195 c0)))
(define-fun e197 ((c0 (_ BitVec 64))) (_ BitVec 64) (c33 c9 c9))
(define-fun e198 ((c0 (_ BitVec 64))) Bool (= (e197 c0) (e195 c0)))
(define-fun e199 ((c0 (_ BitVec 64))) (_ BitVec 64) (c36 c9 (e194 c0)))
(define-fun e200 ((c0 (_ BitVec 64))) (_ BitVec 64) (c36 c9 (e195 c0)))
(define-fun e201 ((c0 (_ BitVec 64))) (_ BitVec 64) (ite (e198 c0) (e199 c0) (e200 c0)))
(define-fun e202 ((c0 (_ BitVec 64))) (_ BitVec 64) (ite (e196 c0) c9 (e201 c0)))
(define-fun e203 ((c0 (_ BitVec 64))) Bool (= c0 (e202 c0)))
(define-fun e204 ((c0 (_ BitVec 64))) Bool (and (e190 c0) (e203 c0)))
(define-fun e205 ((c0 (_ BitVec 64))) Bool (= c10 (e199 c0)))
(define-fun e206 ((c0 (_ BitVec 64))) (_ BitVec 64) (c33 c9 c10))
(define-fun e207 ((c0 (_ BitVec 64))) (_ BitVec 64) (ite (e205 c0) (e197 c0) (e206 c0)))
(define-fun e208 ((c0 (_ BitVec 64))) (_ BitVec 64) (ite (e177 c0) (e194 c0) (e207 c0)))
(define-fun e209 ((c0 (_ BitVec 64))) (_ BitVec 64) (c33 c0 c0))
(define-fun e210 ((c0 (_ BitVec 64))) (_ BitVec 64) (ite (e190 c0) (e194 c0) (e209 c0)))
(define-fun e211 ((c0 (_ BitVec 64))) (_ BitVec 64) (ite (e204 c0) (e208 c0) (e210 c0)))
(define-fun e212 ((c0 (_ BitVec 64))) (_ BitVec 64) (ite (e192 c0) (e195 c0) (e211 c0)))
(define-fun e213 ((c0 (_ BitVec 64))) Bool (not (e182 c0)))
(define-fun e214 ((c0 (_ BitVec 64))) Bool (and (e185 c0) (e188 c0)))
(define-fun e215 ((c0 (_ BitVec 64))) Bool (not (e214 c0)))
(define-fun e216 ((c0 (_ BitVec 64))) Bool (and (e182 c0) (e215 c0)))
(define-fun e217 ((c0 (_ BitVec 64))) Bool (or (e213 c0) (e216 c0)))
(define-fun e218 ((c0 (_ BitVec 64))) Bool (and (e178 c0) (e217 c0)))
(define-fun e219 ((c0 (_ BitVec 64))) Bool (or (e177 c0) (e218 c0)))
(define-fun e220 ((c0 (_ BitVec 64))) Bool (and (e176 c0) (e219 c0)))
(define-fun e221 ((c0 (_ BitVec 64))) Bool (or c7 (e220 c0)))
(define-fun e222 ((c0 (_ BitVec 64))) (_ BitVec 64) (bvor (ite (e189 c0) (e212 c0) (_ bv0 64)) (ite (e221 c0) (e209 c0) (_ bv0 64))))
(define-fun e223 ((c0 (_ BitVec 64))) Bool (= (e175 c0) (e222 c0)))
(define-fun e224 ((c0 (_ BitVec 64))) Bool (= (e175 c0) (e195 c0)))
(define-fun e225 ((c0 (_ BitVec 64))) Bool (and (e190 c0) (e224 c0)))
(define-fun e226 ((c0 (_ BitVec 64))) Bool (= (e175 c0) (e208 c0)))
(define-fun e227 ((c0 (_ BitVec 64))) Bool (and (e190 c0) (e226 c0)))
(define-fun e228 ((c0 (_ BitVec 64))) Bool (= (e175 c0) (e194 c0)))
(define-fun e229 ((c0 (_ BitVec 64))) Bool (and (e190 c0) (e228 c0)))
(define-fun e230 ((c0 (_ BitVec 64))) Bool (= (e175 c0) (e197 c0)))
(define-fun e231 ((c0 (_ BitVec 64))) Bool (and (e190 c0) (e230 c0)))
(define-fun e232 ((c0 (_ BitVec 64))) (_ BitVec 64) (c36 c0 (e175 c0)))
(define-fun e233 ((c0 (_ BitVec 64))) (_ BitVec 64) (ite (e231 c0) (e199 c0) (e232 c0)))
(define-fun e234 ((c0 (_ BitVec 64))) (_ BitVec 64) (ite (e229 c0) c9 (e233 c0)))
(define-fun e235 ((c0 (_ BitVec 64))) (_ BitVec 64) (ite (e227 c0) (e202 c0) (e234 c0)))
(define-fun e236 ((c0 (_ BitVec 64))) (_ BitVec 64) (ite (e225 c0) c10 (e235 c0)))
(define-fun e237 ((c0 (_ BitVec 64))) (_ BitVec 64) (bvor (ite (e189 c0) (e236 c0) (_ bv0 64)) (ite (e221 c0) (e232 c0) (_ bv0 64))))
(define-fun e238 ((c0 (_ BitVec 64))) Bool (= c0 (e237 c0)))
(define-fun e239 ((c0 (_ BitVec 64))) Bool (and (e223 c0) (e238 c0)))
(define-fun e240 ((c0 (_ BitVec 64))) Bool (bvult c0 (e179 c0)))
(declare-fun c241 ((_ BitVec 64)) (_ BitVec 64))
(define-fun e242 ((c0 (_ BitVec 64))) (_ BitVec 64) (c241 c0))
(define-fun e243 ((c0 (_ BitVec 64))) (_ BitVec 64) (ite (e190 c0) c9 (e242 c0)))
(define-fun e244 ((c0 (_ BitVec 64))) (_ BitVec 64) (ite (e191 c0) c9 (e243 c0)))
(define-fun e245 ((c0 (_ BitVec 64))) (_ BitVec 64) (bvor (ite (e189 c0) (e244 c0) (_ bv0 64)) (ite (e221 c0) (e242 c0) (_ bv0 64))))
(define-fun e246 ((c0 (_ BitVec 64))) Bool (= c0 (e245 c0)))
(define-fun e247 ((c0 (_ BitVec 64))) (_ BitVec 64) (_ bv3 64))
(define-fun e248 ((c0 (_ BitVec 64))) (_ BitVec 64) (c17 c0))
(define-fun e249 ((c0 (_ BitVec 64))) (_ BitVec 64) (ite (e190 c0) (e193 c0) (e248 c0)))
(define-fun e250 ((c0 (_ BitVec 64))) (_ BitVec 64) (ite (e191 c0) (e247 c0) (e249 c0)))
(define-fun e251 ((c0 (_ BitVec 64))) (_ BitVec 64) (bvor (ite (e189 c0) (e250 c0) (_ bv0 64)) (ite (e221 c0) (e248 c0) (_ bv0 64))))
(define-fun e252 ((c0 (_ BitVec 64))) Bool (= (e175 c0) (e251 c0)))
(define-fun e253 ((c0 (_ BitVec 64))) Bool (and (e240 c0) (e252 c0)))
(define-fun e254 ((c0 (_ BitVec 64))) Bool (not (e253 c0)))
(define-fun e255 ((c0 (_ BitVec 64))) Bool (and (e246 c0) (e254 c0)))
(define-fun e256 ((c0 (_ BitVec 64))) Bool (and (e240 c0) (e255 c0)))
(define-fun e257 ((c0 (_ BitVec 64))) Bool (not (e256 c0)))
(define-fun e258 ((c0 (_ BitVec 64))) Bool (or (e239 c0) (e257 c0)))
(define-fun e259 () Bool (forall ((c0 (_ BitVec 64))) (e258 c0)))
(define-fun e260 ((c0 (_ BitVec 64)) (c1 (_ BitVec 64))) (_ BitVec 64) (c241 c1))
(define-fun e261 ((c0 (_ BitVec 64)) (c1 (_ BitVec 64))) (_ BitVec 64) (ite (e47 c0 c1) c9 (e260 c0 c1)))
(define-fun e262 ((c0 (_ BitVec 64)) (c1 (_ BitVec 64))) (_ BitVec 64) (ite (e26 c0 c1) c9 (e261 c0 c1)))
(define-fun e263 ((c0 (_ BitVec 64)) (c1 (_ BitVec 64))) (_ BitVec 64) (bvor (ite (e24 c0 c1) (e262 c0 c1) (_ bv0 64)) (ite (e64 c0 c1) (e260 c0 c1) (_ bv0 64))))
(define-fun e264 ((c0 (_ BitVec 64)) (c1 (_ BitVec 64))) Bool (= c0 (e263 c0 c1)))
(define-fun e265 ((c0 (_ BitVec 64)) (c1 (_ BitVec 64))) (_ BitVec 64) (_ bv3 64))
(define-fun e266 ((c0 (_ BitVec 64)) (c1 (_ BitVec 64))) (_ BitVec 64) (c17 c1))
(define-fun e267 ((c0 (_ BitVec 64)) (c1 (_ BitVec 64))) (_ BitVec 64) (ite (e47 c0 c1) (e28 c0 c1) (e266 c0 c1)))
(define-fun e268 ((c0 (_ BitVec 64)) (c1 (_ BitVec 64))) (_ BitVec 64) (ite (e26 c0 c1) (e265 c0 c1) (e267 c0 c1)))
(define-fun e269 ((c0 (_ BitVec 64)) (c1 (_ BitVec 64))) (_ BitVec 64) (bvor (ite (e24 c0 c1) (e268 c0 c1) (_ bv0 64)) (ite (e64 c0 c1) (e266 c0 c1) (_ bv0 64))))
(define-fun e270 ((c0 (_ BitVec 64)) (c1 (_ BitVec 64))) Bool (= (e16 c0 c1) (e269 c0 c1)))
(define-fun e271 ((c0 (_ BitVec 64)) (c1 (_ BitVec 64))) Bool (and (e4 c0 c1) (e270 c0 c1)))
(define-fun e272 ((c0 (_ BitVec 64)) (c1 (_ BitVec 64))) Bool (not (e271 c0 c1)))
(define-fun e273 ((c0 (_ BitVec 64)) (c1 (_ BitVec 64))) Bool (and (e264 c0 c1) (e272 c0 c1)))
(define-fun e274 ((c0 (_ BitVec 64)) (c1 (_ BitVec 64))) (_ BitVec 64) (_ bv2 64))
(define-fun e275 ((c0 (_ BitVec 64)) (c1 (_ BitVec 64))) (_ BitVec 64) (c29 c0))
(define-fun e276 ((c0 (_ BitVec 64)) (c1 (_ BitVec 64))) (_ BitVec 64) (bvadd (e274 c0 c1) (e275 c0 c1)))
(define-fun e277 ((c0 (_ BitVec 64)) (c1 (_ BitVec 64))) (_ BitVec 64) (ite (e25 c0 c1) (e276 c0 c1) (e275 c0 c1)))
(define-fun e278 ((c0 (_ BitVec 64)) (c1 (_ BitVec 64))) (_ BitVec 64) (bvor (ite (e24 c0 c1) (e277 c0 c1) (_ bv0 64)) (ite (e64 c0 c1) (e275 c0 c1) (_ bv0 64))))
(define-fun e279 ((c0 (_ BitVec 64)) (c1 (_ BitVec 64))) Bool (bvult (e65 c0 c1) (e278 c0 c1)))
(define-fun e280 ((c0 (_ BitVec 64)) (c1 (_ BitVec 64))) Bool (and (=> (e273 c0 c1) (e279 c0 c1)) (=> (e279 c0 c1) (e273 c0 c1))))
(define-fun e281 ((c0 (_ BitVec 64)) (c1 (_ BitVec 64))) Bool (or (e6 c0 c1) (e280 c0 c1)))
(define-fun e282 () Bool (forall ((c0 (_ BitVec 64)) (c1 (_ BitVec 64))) (e281 c0 c1)))
(define-fun e283 ((c0 (_ BitVec 64))) Bool (not (e240 c0)))
(define-fun e284 ((c0 (_ BitVec 64))) (_ BitVec 64) (_ bv2 64))
(define-fun e285 ((c0 (_ BitVec 64))) (_ BitVec 64) (c29 c0))
(define-fun e286 ((c0 (_ BitVec 64))) (_ BitVec 64) (bvadd (e284 c0) (e285 c0)))
(define-fun e287 ((c0 (_ BitVec 64))) (_ BitVec 64) (ite (e190 c0) (e286 c0) (e285 c0)))
(define-fun e288 ((c0 (_ BitVec 64))) (_ BitVec 64) (bvor (ite (e189 c0) (e287 c0) (_ bv0 64)) (ite (e221 c0) (e285 c0) (_ bv0 64))))
(define-fun e289 ((c0 (_ BitVec 64))) Bool (bvule (e288 c0) (e179 c0)))
(define-fun e290 ((c0 (_ BitVec 64))) Bool (or (e283 c0) (e289 c0)))
(define-fun e291 () Bool (forall ((c0 (_ BitVec 64))) (e290 c0)))
(define-fun e292 () Bool (and e68 e174 e259 e282 e291))
(define-fun e294 ((c293 (_ BitVec 64))) (_ BitVec 64) (c241 c293))
(define-fun e295 ((c293 (_ BitVec 64))) Bool (= c293 (e294 c293)))
(define-fun e296 ((c293 (_ BitVec 64))) (_ BitVec 64) (_ bv1024 64))
(define-fun e297 ((c293 (_ BitVec 64))) Bool (bvult c293 (e296 c293)))
(define-fun e298 ((c293 (_ BitVec 64))) (_ BitVec 64) (_ bv1 64))
(define-fun e299 ((c293 (_ BitVec 64))) (_ BitVec 64) (c17 c293))
(define-fun e300 ((c293 (_ BitVec 64))) Bool (= (e298 c293) (e299 c293)))
(define-fun e301 ((c293 (_ BitVec 64))) Bool (and (e297 c293) (e300 c293)))
(define-fun e302 ((c293 (_ BitVec 64))) Bool (not (e301 c293)))
(define-fun e303 ((c293 (_ BitVec 64))) Bool (or (e295 c293) (e302 c293)))
(define-fun e304 () Bool (forall ((c293 (_ BitVec 64))) (e303 c293)))
(define-fun e305 ((c293 (_ BitVec 64))) Bool (bvult (e294 c293) (e296 c293)))
(define-fun e306 ((c293 (_ BitVec 64))) (_ BitVec 64) (_ bv0 64))
(define-fun e307 ((c293 (_ BitVec 64))) Bool (= (e306 c293) (e299 c293)))
(define-fun e308 ((c293 (_ BitVec 64))) Bool (not (e307 c293)))
(define-fun e309 ((c293 (_ BitVec 64))) Bool (and (e297 c293) (e308 c293)))
(define-fun e310 ((c293 (_ BitVec 64))) Bool (not (e309 c293)))
(define-fun e311 ((c293 (_ BitVec 64))) Bool (or (e305 c293) (e310 c293)))
(define-fun e312 () Bool (forall ((c293 (_ BitVec 64))) (e311 c293)))
(declare-fun c313 () (_ BitVec 64))
(define-fun e314 () (_ BitVec 64) (_ bv1024 64))
(define-fun e315 () Bool (bvult c313 e314))
(define-fun e316 () (_ BitVec 64) (_ bv2 64))
(define-fun e317 () (_ BitVec 64) (c17 c313))
(define-fun e318 () Bool (= e316 e317))
(define-fun e319 () Bool (and e315 e318))
(define-fun e320 () Bool (not c7))
(define-fun e321 () Bool (or e319 e320))
(define-fun e322 ((c293 (_ BitVec 64))) (_ BitVec 64) (c29 c293))
(define-fun e323 ((c293 (_ BitVec 64))) Bool (= (e306 c293) (e322 c293)))
(define-fun e324 ((c293 (_ BitVec 64))) Bool (and (e297 c293) (e302 c293)))
(define-fun e325 ((c293 (_ BitVec 64))) Bool (not (e324 c293)))
(define-fun e326 ((c293 (_ BitVec 64))) Bool (or (e323 c293) (e325 c293)))
(define-fun e327 () Bool (forall ((c293 (_ BitVec 64))) (e326 c293)))
(declare-fun c328 ((_ BitVec 64) (_ BitVec 64)) (_ BitVec 64))
(define-fun e329 ((c293 (_ BitVec 64))) (_ BitVec 64) (c328 c293 (e298 c293)))
(define-fun e330 ((c293 (_ BitVec 64))) Bool (= (e322 c293) (e329 c293)))
(define-fun e331 ((c293 (_ BitVec 64))) Bool (or (e302 c293) (e330 c293)))
(define-fun e332 () Bool (forall ((c293 (_ BitVec 64))) (e331 c293)))
(define-fun e333 ((c0 (_ BitVec 64)) (c1 (_ BitVec 64))) Bool (bvult (e51 c0 c1) (e2 c0 c1)))
(define-fun e334 ((c0 (_ BitVec 64)) (c1 (_ BitVec 64))) Bool (or (e333 c0 c1) (e6 c0 c1)))
(define-fun e335 () Bool (forall ((c0 (_ BitVec 64)) (c1 (_ BitVec 64))) (e334 c0 c1)))
(define-fun e336 ((c0 (_ BitVec 64)) (c1 (_ BitVec 64)) (c69 (_ BitVec 64))) (_ BitVec 64) (c33 c0 (e113 c0 c1 c69)))
(define-fun e337 ((c0 (_ BitVec 64)) (c1 (_ BitVec 64)) (c69 (_ BitVec 64))) Bool (= c69 (e336 c0 c1 c69)))
(define-fun e338 ((c0 (_ BitVec 64)) (c1 (_ BitVec 64)) (c69 (_ BitVec 64))) (_ BitVec 64) (c36 c0 (e151 c0 c1 c69)))
(define-fun e339 ((c0 (_ BitVec 64)) (c1 (_ BitVec 64)) (c69 (_ BitVec 64))) Bool (= c1 (e338 c0 c1 c69)))
(define-fun e340 ((c0 (_ BitVec 64)) (c1 (_ BitVec 64)) (c69 (_ BitVec 64))) Bool (and (e337 c0 c1 c69) (e339 c0 c1 c69)))
(define-fun e341 ((c0 (_ BitVec 64)) (c1 (_ BitVec 64)) (c69 (_ BitVec 64))) Bool (or (e340 c0 c1 c69) (e75 c0 c1 c69)))
(define-fun e342 () Bool (forall ((c0 (_ BitVec 64)) (c1 (_ BitVec 64)) (c69 (_ BitVec 64))) (e341 c0 c1 c69)))
(define-fun e343 ((c0 (_ BitVec 64))) Bool (= (e175 c0) (e209 c0)))
(define-fun e344 ((c0 (_ BitVec 64))) Bool (= c0 (e232 c0)))
(define-fun e345 ((c0 (_ BitVec 64))) Bool (and (e343 c0) (e344 c0)))
(define-fun e346 ((c0 (_ BitVec 64))) Bool (= c0 (e242 c0)))
(define-fun e347 ((c0 (_ BitVec 64))) Bool (= (e175 c0) (e248 c0)))
(define-fun e348 ((c0 (_ BitVec 64))) Bool (and (e240 c0) (e347 c0)))
(define-fun e349 ((c0 (_ BitVec 64))) Bool (not (e348 c0)))
(define-fun e350 ((c0 (_ BitVec 64))) Bool (and (e346 c0) (e349 c0)))
(define-fun e351 ((c0 (_ BitVec 64))) Bool (and (e240 c0) (e350 c0)))
(define-fun e352 ((c0 (_ BitVec 64))) Bool (not (e351 c0)))
(define-fun e353 ((c0 (_ BitVec 64))) Bool (or (e345 c0) (e352 c0)))
(define-fun e354 () Bool (forall ((c0 (_ BitVec 64))) (e353 c0)))
(define-fun e355 ((c0 (_ BitVec 64)) (c1 (_ BitVec 64))) Bool (= c0 (e260 c0 c1)))
(define-fun e356 ((c0 (_ BitVec 64)) (c1 (_ BitVec 64))) Bool (= (e16 c0 c1) (e266 c0 c1)))
(define-fun e357 ((c0 (_ BitVec 64)) (c1 (_ BitVec 64))) Bool (and (e4 c0 c1) (e356 c0 c1)))
(define-fun e358 ((c0 (_ BitVec 64)) (c1 (_ BitVec 64))) Bool (not (e357 c0 c1)))
(define-fun e359 ((c0 (_ BitVec 64)) (c1 (_ BitVec 64))) Bool (and (e355 c0 c1) (e358 c0 c1)))
(define-fun e360 ((c0 (_ BitVec 64)) (c1 (_ BitVec 64))) Bool (bvult (e51 c0 c1) (e275 c0 c1)))
(define-fun e361 ((c0 (_ BitVec 64)) (c1 (_ BitVec 64))) Bool (and (=> (e359 c0 c1) (e360 c0 c1)) (=> (e360 c0 c1) (e359 c0 c1))))
(define-fun e362 ((c0 (_ BitVec 64)) (c1 (_ BitVec 64))) Bool (or (e6 c0 c1) (e361 c0 c1)))
(define-fun e363 () Bool (forall ((c0 (_ BitVec 64)) (c1 (_ BitVec 64))) (e362 c0 c1)))
(define-fun e364 ((c0 (_ BitVec 64))) Bool (bvule (e285 c0) (e179 c0)))
(define-fun e365 ((c0 (_ BitVec 64))) Bool (or (e364 c0) (e283 c0)))
(define-fun e366 () Bool (forall ((c0 (_ BitVec 64))) (e365 c0)))
(define-fun e367 () Bool (and e335 e342 e354 e363 e366))
(define-fun e368 () Bool (and e304 e312 e315 e321 e327 e332 e367))
(define-fun e369 () Bool (not e368))
(define-fun e370 () Bool (or e292 e369))
(define-fun e371 () Bool (not e370))
(assert e371)
(check-sat)
